Mack/Bortfeldt(2008)
Bin-Packing-Problem
BP-RG/SBSBPP/SSSCSP
Testcase-ID	7
Problem-ID	13
no_item_types	5
no_items	1046
CONTAINER_DATA (l,w,h)	587	233	1
ITEMS_DATA:
Type	x	y	z	no_items
1	51	39	1	244
2	48	40	1	210
3	56	23	1	206
4	25	21	1	189
5	15	13	1	197
